c Result of efficient AIG-to-CNF conversion using package CNF
p cnf 230 656
1 -221 228 0
-1 221 0
-1 -228 0
2 -219 220 0
-2 219 0
-2 -220 0
3 219 -220 0
-3 -219 0
-3 220 0
4 2 3 0
-4 -2 0
-4 -3 0
5 223 4 0
-5 -223 0
-5 -4 0
6 220 227 0
-6 -220 0
-6 -227 0
7 219 226 0
-7 -219 0
-7 -226 0
8 -221 -6 0
-8 221 0
-8 6 0
9 -7 -8 0
-9 7 0
-9 8 0
10 219 -224 0
-10 -219 0
-10 224 0
11 224 9 0
-11 -224 0
-11 -9 0
12 10 11 0
-12 -10 0
-12 -11 0
13 -220 221 0
-13 220 0
-13 -221 0
14 -219 -13 0
-14 219 0
-14 13 0
15 219 -225 0
-15 -219 0
-15 225 0
16 225 14 0
-16 -225 0
-16 -14 0
17 15 16 0
-17 -15 0
-17 -16 0
18 12 17 0
-18 -12 0
-18 -17 0
19 222 18 0
-19 -222 0
-19 -18 0
20 220 -221 0
-20 -220 0
-20 221 0
21 219 -20 0
-21 -219 0
-21 20 0
22 14 21 0
-22 -14 0
-22 -21 0
23 -221 1 0
-23 221 0
-23 -1 0
24 221 -1 0
-24 -221 0
-24 1 0
25 23 24 0
-25 -23 0
-25 -24 0
26 -5 23 0
-26 5 0
-26 -23 0
27 5 -23 0
-27 -5 0
-27 23 0
28 26 27 0
-28 -26 0
-28 -27 0
29 4 -28 0
-29 -4 0
-29 28 0
30 -4 28 0
-30 4 0
-30 -28 0
31 29 30 0
-31 -29 0
-31 -30 0
32 4 5 0
-32 -4 0
-32 -5 0
33 -4 -5 0
-33 4 0
-33 5 0
34 -23 33 0
-34 23 0
-34 -33 0
35 23 -32 0
-35 -23 0
-35 32 0
36 34 35 0
-36 -34 0
-36 -35 0
37 -19 -36 0
-37 19 0
-37 36 0
38 19 36 0
-38 -19 0
-38 -36 0
39 37 38 0
-39 -37 0
-39 -38 0
40 22 -39 0
-40 -22 0
-40 39 0
41 -22 39 0
-41 22 0
-41 -39 0
42 40 41 0
-42 -40 0
-42 -41 0
43 19 22 0
-43 -19 0
-43 -22 0
44 -19 -22 0
-44 19 0
-44 22 0
45 36 44 0
-45 -36 0
-45 -44 0
46 -36 -43 0
-46 36 0
-46 43 0
47 45 46 0
-47 -45 0
-47 -46 0
48 221 -47 0
-48 -221 0
-48 47 0
49 -221 47 0
-49 221 0
-49 -47 0
50 48 49 0
-50 -48 0
-50 -49 0
51 221 -50 0
-51 -221 0
-51 50 0
52 -221 50 0
-52 221 0
-52 -50 0
53 51 52 0
-53 -51 0
-53 -52 0
54 -25 -31 0
-54 25 0
-54 31 0
55 -42 54 0
-55 42 0
-55 -54 0
56 42 -54 0
-56 -42 0
-56 54 0
57 55 56 0
-57 -55 0
-57 -56 0
58 -42 -54 0
-58 42 0
-58 54 0
59 -53 58 0
-59 53 0
-59 -58 0
60 53 -58 0
-60 -53 0
-60 58 0
61 59 60 0
-61 -59 0
-61 -60 0
62 42 -47 0
-62 -42 0
-62 47 0
63 47 57 0
-63 -47 0
-63 -57 0
64 62 63 0
-64 -62 0
-64 -63 0
65 -47 53 0
-65 47 0
-65 -53 0
66 47 61 0
-66 -47 0
-66 -61 0
67 65 66 0
-67 -65 0
-67 -66 0
68 -64 -67 0
-68 64 0
-68 67 0
69 -222 -223 0
-69 222 0
-69 223 0
70 222 223 0
-70 -222 0
-70 -223 0
71 -69 70 0
-71 69 0
-71 -70 0
72 69 -70 0
-72 -69 0
-72 70 0
73 -223 -224 0
-73 223 0
-73 224 0
74 223 224 0
-74 -223 0
-74 -224 0
75 -223 -73 0
-75 223 0
-75 73 0
76 223 73 0
-76 -223 0
-76 -73 0
77 -223 74 0
-77 223 0
-77 -74 0
78 223 -74 0
-78 -223 0
-78 74 0
79 76 -77 0
-79 -76 0
-79 77 0
80 -76 77 0
-80 76 0
-80 -77 0
81 -69 -75 0
-81 69 0
-81 75 0
82 69 75 0
-82 -69 0
-82 -75 0
83 72 80 0
-83 -72 0
-83 -80 0
84 -72 -80 0
-84 72 0
-84 80 0
85 82 -83 0
-85 -82 0
-85 83 0
86 -82 83 0
-86 82 0
-86 -83 0
87 -71 -79 0
-87 71 0
-87 79 0
88 71 79 0
-88 -71 0
-88 -79 0
89 70 78 0
-89 -70 0
-89 -78 0
90 -70 -78 0
-90 70 0
-90 78 0
91 88 -89 0
-91 -88 0
-91 89 0
92 -88 89 0
-92 88 0
-92 -89 0
93 -85 -87 0
-93 85 0
-93 87 0
94 85 87 0
-94 -85 0
-94 -87 0
95 86 -91 0
-95 -86 0
-95 91 0
96 -86 91 0
-96 86 0
-96 -91 0
97 84 92 0
-97 -84 0
-97 -92 0
98 -84 -92 0
-98 84 0
-98 92 0
99 -222 -81 0
-99 222 0
-99 81 0
100 222 81 0
-100 -222 0
-100 -81 0
101 -222 96 0
-101 222 0
-101 -96 0
102 222 -96 0
-102 -222 0
-102 96 0
103 100 -101 0
-103 -100 0
-103 101 0
104 -100 101 0
-104 100 0
-104 -101 0
105 -222 94 0
-105 222 0
-105 -94 0
106 222 -94 0
-106 -222 0
-106 94 0
107 -222 98 0
-107 222 0
-107 -98 0
108 222 -98 0
-108 -222 0
-108 98 0
109 106 -107 0
-109 -106 0
-109 107 0
110 -106 107 0
-110 106 0
-110 -107 0
111 -103 -105 0
-111 103 0
-111 105 0
112 103 105 0
-112 -103 0
-112 -105 0
113 104 -109 0
-113 -104 0
-113 109 0
114 -104 109 0
-114 104 0
-114 -109 0
115 102 110 0
-115 -102 0
-115 -110 0
116 -102 -110 0
-116 102 0
-116 110 0
117 -222 -93 0
-117 222 0
-117 93 0
118 222 93 0
-118 -222 0
-118 -93 0
119 -222 -97 0
-119 222 0
-119 97 0
120 222 97 0
-120 -222 0
-120 -97 0
121 118 -119 0
-121 -118 0
-121 119 0
122 -118 119 0
-122 118 0
-122 -119 0
123 -222 -95 0
-123 222 0
-123 95 0
124 222 95 0
-124 -222 0
-124 -95 0
125 -222 90 0
-125 222 0
-125 -90 0
126 222 -90 0
-126 -222 0
-126 90 0
127 124 -125 0
-127 -124 0
-127 125 0
128 -124 125 0
-128 124 0
-128 -125 0
129 -121 -123 0
-129 121 0
-129 123 0
130 121 123 0
-130 -121 0
-130 -123 0
131 122 -127 0
-131 -122 0
-131 127 0
132 -122 127 0
-132 122 0
-132 -127 0
133 120 128 0
-133 -120 0
-133 -128 0
134 -120 -128 0
-134 120 0
-134 128 0
135 -111 -117 0
-135 111 0
-135 117 0
136 111 117 0
-136 -111 0
-136 -117 0
137 112 -129 0
-137 -112 0
-137 129 0
138 -112 129 0
-138 112 0
-138 -129 0
139 -113 130 0
-139 113 0
-139 -130 0
140 113 -130 0
-140 -113 0
-140 130 0
141 114 -131 0
-141 -114 0
-141 131 0
142 -114 131 0
-142 114 0
-142 -131 0
143 -115 132 0
-143 115 0
-143 -132 0
144 115 -132 0
-144 -115 0
-144 132 0
145 116 -133 0
-145 -116 0
-145 133 0
146 -116 133 0
-146 116 0
-146 -133 0
147 108 134 0
-147 -108 0
-147 -134 0
148 -108 -134 0
-148 108 0
-148 134 0
149 -224 -225 0
-149 224 0
-149 225 0
150 224 225 0
-150 -224 0
-150 -225 0
151 -224 -149 0
-151 224 0
-151 149 0
152 224 149 0
-152 -224 0
-152 -149 0
153 -224 150 0
-153 224 0
-153 -150 0
154 224 -150 0
-154 -224 0
-154 150 0
155 152 -153 0
-155 -152 0
-155 153 0
156 -152 153 0
-156 152 0
-156 -153 0
157 -225 -226 0
-157 225 0
-157 226 0
158 225 226 0
-158 -225 0
-158 -226 0
159 -227 -228 0
-159 227 0
-159 228 0
160 227 228 0
-160 -227 0
-160 -228 0
161 -157 -159 0
-161 157 0
-161 159 0
162 157 159 0
-162 -157 0
-162 -159 0
163 158 160 0
-163 -158 0
-163 -160 0
164 -158 -160 0
-164 158 0
-164 160 0
165 162 -163 0
-165 -162 0
-165 163 0
166 -162 163 0
-166 162 0
-166 -163 0
167 -151 -161 0
-167 151 0
-167 161 0
168 151 161 0
-168 -151 0
-168 -161 0
169 156 166 0
-169 -156 0
-169 -166 0
170 -156 -166 0
-170 156 0
-170 166 0
171 168 -169 0
-171 -168 0
-171 169 0
172 -168 169 0
-172 168 0
-172 -169 0
173 -155 -165 0
-173 155 0
-173 165 0
174 155 165 0
-174 -155 0
-174 -165 0
175 154 164 0
-175 -154 0
-175 -164 0
176 -154 -164 0
-176 154 0
-176 164 0
177 174 -175 0
-177 -174 0
-177 175 0
178 -174 175 0
-178 174 0
-178 -175 0
179 -171 -173 0
-179 171 0
-179 173 0
180 171 173 0
-180 -171 0
-180 -173 0
181 172 -177 0
-181 -172 0
-181 177 0
182 -172 177 0
-182 172 0
-182 -177 0
183 170 178 0
-183 -170 0
-183 -178 0
184 -170 -178 0
-184 170 0
-184 178 0
185 180 182 0
-185 -180 0
-185 -182 0
186 -180 -182 0
-186 180 0
-186 182 0
187 -181 -183 0
-187 181 0
-187 183 0
188 181 183 0
-188 -181 0
-188 -183 0
189 -179 -185 0
-189 179 0
-189 185 0
190 179 185 0
-190 -179 0
-190 -185 0
191 186 -187 0
-191 -186 0
-191 187 0
192 -186 187 0
-192 186 0
-192 -187 0
193 184 188 0
-193 -184 0
-193 -188 0
194 -184 -188 0
-194 184 0
-194 188 0
195 99 167 0
-195 -99 0
-195 -167 0
196 -142 -195 0
-196 142 0
-196 195 0
197 -138 -192 0
-197 138 0
-197 192 0
198 146 197 0
-198 -146 0
-198 -197 0
199 -196 198 0
-199 196 0
-199 -198 0
200 -136 -190 0
-200 136 0
-200 190 0
201 -144 -200 0
-201 144 0
-201 200 0
202 -140 -194 0
-202 140 0
-202 194 0
203 148 202 0
-203 -148 0
-203 -202 0
204 201 -203 0
-204 -201 0
-204 203 0
205 -199 204 0
-205 199 0
-205 -204 0
206 135 189 0
-206 -135 0
-206 -189 0
207 143 -206 0
-207 -143 0
-207 206 0
208 139 193 0
-208 -139 0
-208 -193 0
209 -147 208 0
-209 147 0
-209 -208 0
210 -207 209 0
-210 207 0
-210 -209 0
211 137 191 0
-211 -137 0
-211 -191 0
212 145 -211 0
-212 -145 0
-212 211 0
213 141 -176 0
-213 -141 0
-213 176 0
214 126 213 0
-214 -126 0
-214 -213 0
215 212 -214 0
-215 -212 0
-215 214 0
216 210 -215 0
-216 -210 0
-216 215 0
217 -205 216 0
-217 205 0
-217 -216 0
218 -68 217 0
-218 68 0
-218 -217 0
229 0
218 0

